101110000001000000100101000101111011000000110101000000001011100010110011111011000000000000010100011011100101111011100010111010110100100100000000111111100000101101101000101011011000101001010101010010111001111000100011001011011101011000010111111000001000110101111100000010000011011011110000101000100000000000000000100110101000000110011001000000100000000011111100100010000011111000101011000000110001010101111011100101100000001100010101101110111101011000100101000101111011000000110101000000001010001001110110100100000000000001011000110101011111110101011000110101000100010100100110101101010100100110000110101000010110110010000100100111001101011001101101011010110111100101001001001001010010010010010010000011010100110110001100000001110100011100111011001010111001100000110010